# SCIP version 3.0.0

# is basis separator enabled?
sepa/basis/enable = TRUE

# is objective constraint of separator enabled?
sepa/basis/enableobj = TRUE

# round obj rhs/lhs of obj constraint if obj is int?
sepa/basis/enableobjround = TRUE

sepa/basis/iterations = 10

sepa/basis/aggressive = TRUE

sepa/basis/enableppcuts = TRUE

sepa/basis/chgobj = FALSE

lp/solvefreq = 0

lp/iterlim = -1

lp/rootiterlim = -1

conflict/enable = FALSE

separating/poolfreq = -1
